scip/project/modSol/Debug/bell5_p0.lp
\ SCIP STATISTICS
\   Problem name     : BELL5
\   Variables        : 104 (30 binary, 28 integer, 0 implicit integer, 46 continuous)
\   Constraints      : 91
\   Obj. scale       : 1
\   Obj. offset      : 0
Minimize
 Obj: +43000 d16 +43000 d1 +43000 d2 +43000 d3 +43000 d4 +43000 d5 +43000 d6 +43000 d7 +43000 d9 +43000 d10
      +43000 d11 +43000 d12 +43000 d13 +43000 d14 +10000 g14 +10000 g13 +10000 g12 +10000 g11 +10000 g10
      +10000 g9 +10000 g7 +10000 g6 +10000 g5 +10000 g4 +10000 g3 +10000 g2 +10000 g1 +58000 h16 +58000 h14
      +58000 h13 +59000 h12 +59000 h11 +59000 h10 +60000 h9 +59000 h7 +59000 h6 +59000 h5 +59000 h4 +58000 h3
      +58000 h2 +58000 h1 +10000 g16 +24.5645 a1 +20.3962 a2 +14.1693 a3 +50.2605 a4 +58.0423 a5 +36.6095 a6
      +39.201 a7 +48.034 a8 +29.4336 a9 +36.0182 a10 +18.7245 a11 +30.3169 a12 +5.3655 a13 +25.55 a14
      +20.7977 a15 +1.825 a16 +2.45645 b1 +2.03962 b2 +1.41693 b3 +5.02605 b4 +5.80423 b5 +3.66095 b6
      +3.9201 b7 +4.8034 b8 +2.94336 b9 +3.60182 b10 +1.87245 b11 +3.03169 b12 +0.53655 b13 +2.555 b14
      +2.07977 b15 +0.1825 b16
Subject to
 A1: -1 c1 +1 c2 <= +0
 A2: -1 c2 +1 c3 <= +0
 A4: -1 c4 +1 c5 <= +0
 A5: -1 c5 +1 c6 <= +0
 A6: -1 c5 +1 c7 <= +0
 A7: -1 c7 +1 c8 <= +0
 A8: -1 c8 +1 c9 <= +0
 A9: -1 c4 +1 c10 <= +0
 A10: -1 c10 +1 c11 <= +0
 A11: -1 c11 +1 c12 <= +0
 A12: -1 c2 +1 c13 <= +0
 A14: -1 c14 +1 c15 <= +0
 A15: -1 c1 +1 c16 <= +0
 B1: -20 c1 +1 d1 +1 h1 <= +0
 B2: -20 c2 +1 d2 +1 h2 <= +0
 B3: -20 c3 +1 d3 +1 h3 <= +0
 B4: -20 c4 +1 d4 +1 h4 <= +0
 B6: -20 c6 +1 d6 +1 h6 <= +0
 B7: -20 c7 +1 d7 +1 h7 <= +0
 B9: -20 c9 +1 d9 +1 h9 <= +0
 B10: -20 c10 +1 d10 +1 h10 <= +0
 B11: -20 c11 +1 d11 +1 h11 <= +0
 B12: -20 c12 +1 d12 +1 h12 <= +0
 B13: -20 c13 +1 d13 +1 h13 <= +0
 B14: -20 c14 +1 d14 +1 h14 <= +0
 B16: -20 c16 +1 d16 +1 h16 <= +0
 C1: -672 d1 -1344 h1 -1 b1 +1 b2 +1 b16 +1 f1 <= +0
 C2: -672 d2 -1344 h2 -1 b2 +1 b3 +1 b13 +1 f2 <= +0
 C3: -672 d3 -1344 h3 -1 b3 +1 b4 +1 f3 <= +0
 C4: -672 d4 -1344 h4 -1 b4 +1 b5 +1 b10 +1 f4 <= +0
 C6: -672 d6 -1344 h6 -1 b6 +1 f6 <= +0
 C7: -672 d7 -1344 h7 -1 b7 +1 b8 +1 f7 <= +0
 C8: -1 b8 +1 b9 <= +0
 C9: -672 d9 -1344 h9 -1 b9 +1 f9 <= +0
 C10: -672 d10 -1344 h10 -1 b10 +1 b11 +1 f10 <= +0
 C11: -672 d11 -1344 h11 -1 b11 +1 b12 +1 f11 <= +0
 C13: -672 d13 -1344 h13 -1 b13 +1 b14 +1 f13 <= +0
 C14: -672 d14 -1344 h14 -1 b14 +1 b15 +1 f14 <= +0
 C15: -1 b15 <= +0
 C16: -672 d16 -1344 h16 -1 b16 +1 f16 <= +0
 D1: -24 g1 +1 f1 <= +0
 D2: -24 g2 +1 f2 <= +0
 D3: -24 g3 +1 f3 <= +0
 D4: -24 g4 +1 f4 <= +0
 D5: -24 g5 +1 f5 <= +0
 D6: -24 g6 +1 f6 <= +0
 D7: -24 g7 +1 f7 <= +0
 D9: -24 g9 +1 f9 <= +0
 D10: -24 g10 +1 f10 <= +0
 D12: -24 g12 +1 f12 <= +0
 D13: -24 g13 +1 f13 <= +0
 D14: -24 g14 +1 f14 <= +0
 D16: -24 g16 +1 f16 <= +0
 E1: -1 a1 +1 a2 +1 a16 -1 f1 <= -800
 E2: -1 a2 +1 a3 +1 a13 -1 f2 <= -3100
 E3: -1 a3 +1 a4 -1 f3 <= -50
 E4: -1 a4 +1 a5 +1 a10 -1 f4 <= -40
 E5: -1 a5 +1 a6 +1 a7 -1 f5 <= -900
 E6: -1 a6 -1 f6 <= -40
 E7: -1 a7 +1 a8 -1 f7 <= -7150
 E9: -1 a9 -1 f9 <= -3000
 E10: -1 a10 +1 a11 -1 f10 <= -250
 E11: -1 a11 +1 a12 -1 f11 <= -400
 E12: -1 a12 -1 f12 <= -1000
 E13: -1 a13 +1 a14 -1 f13 <= -4000
 E14: -1 a14 +1 a15 -1 f14 <= -90
 E15: -1 a15 <= -700
 E16: -1 a16 -1 f16 <= -24
 F0: +1 c1 +0.000833 a1 +8.3e-05 b1 <= +8
 F1: +1 c2 +0.000833 a2 +8.3e-05 b2 <= +8
 F2: +1 c3 +0.000833 a3 +8.3e-05 b3 <= +8
 F3: +1 c4 +0.000833 a4 +8.3e-05 b4 <= +8
 F4: +1 c5 +0.000833 a5 +8.3e-05 b5 <= +1
 F5: +1 c6 +0.000833 a6 +8.3e-05 b6 <= +1
 F8: +1 c9 +0.000833 a9 +8.3e-05 b9 <= +1
 F9: +1 c10 +0.000833 a10 +8.3e-05 b10 <= +1
 F11: +1 c12 +0.000833 a12 +8.3e-05 b12 <= +13
 F12: +1 c13 +0.000833 a13 +8.3e-05 b13 <= +8
 F13: +1 c14 +0.000833 a14 +8.3e-05 b14 <= +8
 F14: +1 c15 +0.000833 a15 +8.3e-05 b15 <= +2
 F15: +1 c16 +0.000833 a16 +8.3e-05 b16 <= +2
Bounds
 0 <= d16 <= 1
 0 <= c1 <= 1
 0 <= c2 <= 1
 0 <= c3 <= 1
 0 <= c4 <= 1
 0 <= c5 <= 1
 0 <= c6 <= 1
 0 <= c7 <= 1
 0 <= c8 <= 1
 0 <= c9 <= 1
 0 <= c10 <= 1
 0 <= c11 <= 1
 0 <= c12 <= 1
 0 <= c13 <= 1
 0 <= c14 <= 1
 0 <= c15 <= 1
 0 <= c16 <= 1
 0 <= d1 <= 1
 0 <= d2 <= 1
 0 <= d3 <= 1
 0 <= d4 <= 1
 0 <= d5 <= 1
 0 <= d6 <= 1
 0 <= d7 <= 1
 0 <= d9 <= 1
 0 <= d10 <= 1
 0 <= d11 <= 1
 0 <= d12 <= 1
 0 <= d13 <= 1
 0 <= d14 <= 1
 0 <= g14 <= 100
 0 <= g13 <= 100
 0 <= g12 <= 100
 0 <= g11 <= 100
 0 <= g10 <= 100
 0 <= g9 <= 1000
 0 <= g7 <= 1000
 0 <= g6 <= 1000
 0 <= g5 <= 1000
 0 <= g4 <= 1000
 0 <= g3 <= 1000
 0 <= g2 <= 1000
 0 <= g1 <= 1000
 0 <= h16 <= 1000
 0 <= h14 <= 1000
 0 <= h13 <= 1000
 0 <= h12 <= 1000
 0 <= h11 <= 1000
 0 <= h10 <= 1000
 0 <= h9 <= 10000
 0 <= h7 <= 10000
 0 <= h6 <= 10000
 0 <= h5 <= 10000
 0 <= h4 <= 10000
 0 <= h3 <= 10000
 0 <= h2 <= 10000
 0 <= h1 <= 10000
 0 <= g16 <= 100
Binaries
 d16 c1 c2 c3 c4 c5 c6 c7 c8 c9 c10 c11 c12 c13 c14 c15 c16 d1 d2 d3 d4 d5 d6 d7 d9 d10 d11 d12 d13 d14
Generals
 g14 g13 g12 g11 g10 g9 g7 g6 g5 g4 g3 g2 g1 h16 h14 h13 h12 h11 h10 h9 h7 h6 h5 h4 h3 h2 h1 g16
End
