scip/repair/Debug/bell5_p0.sol
solution status: optimal solution found
objective value:                        4723057.35876
c4                                                  1 	(obj:0)
c14                                                 1 	(obj:0)
g9                                                 84 	(obj:10000)
g7                                                297 	(obj:10000)
g6                                                  1 	(obj:10000)
g5                                                 22 	(obj:10000)
b1                                               1400 	(obj:2.45645)
b2                                               1400 	(obj:2.03962)
b3                                               1400 	(obj:1.41693)
b4                                               1400 	(obj:5.02605)
b6                                                 24 	(obj:3.66095)
b7                                               9144 	(obj:3.9201)
b8                                               2016 	(obj:4.8034)
b9                                               2016 	(obj:2.94336)
b10                                              1400 	(obj:3.60182)
b11                                              1400 	(obj:1.87245)
a5                                                410 	(obj:58.0423)
a6                                                 16 	(obj:36.6095)
a7                                                 22 	(obj:39.201)
a9                                                984 	(obj:29.4336)
a10                                               250 	(obj:36.0182)
a12                                              1000 	(obj:30.3169)
a13                                              4790 	(obj:5.3655)
a14                                               790 	(obj:25.55)
a15                                               700 	(obj:20.7977)
a1                                               9464 	(obj:24.5645)
a2                                               8640 	(obj:20.3962)
a3                                                750 	(obj:14.1693)
a4                                                700 	(obj:50.2605)
f6                                                 24 	(obj:0)
f7                                               7128 	(obj:0)
f9                                               2016 	(obj:0)
f11                                              1400 	(obj:0)
f5                                                528 	(obj:0)
a16                                                24 	(obj:1.825)
